NAME Sudoku Problem
ROWS
 N  OBJ
 E  R0      
 E  R1      
 E  R2      
 E  R3      
 E  R4      
 E  R5      
 E  R6      
 E  R7      
 E  R8      
 E  R9      
 E  R10     
 E  R11     
 E  R12     
 E  R13     
 E  R14     
 E  R15     
 E  R16     
 E  R17     
 E  R18     
 E  R19     
 E  R20     
 E  R21     
 E  R22     
 E  R23     
 E  R24     
 E  R25     
 E  R26     
 E  R27     
 E  R28     
 E  R29     
 E  R30     
 E  R31     
 E  R32     
 E  R33     
 E  R34     
 E  R35     
 E  R36     
 E  R37     
 E  R38     
 E  R39     
 E  R40     
 E  R41     
 E  R42     
 E  R43     
 E  R44     
 E  R45     
 E  R46     
 E  R47     
 E  R48     
 E  R49     
 E  R50     
 E  R51     
 E  R52     
COLUMNS
    MARKER    'MARKER'                 'INTORG'
    x_1_1     R0        1
    x_1_1     R9        1
    x_1_1     R18       1
    x_1_2     R0        1
    x_1_2     R10       1
    x_1_2     R18       1
    x_1_2     R27       1
    x_1_3     R0        1
    x_1_3     R11       1
    x_1_3     R18       1
    x_1_4     R0        1
    x_1_4     R12       1
    x_1_4     R19       1
    x_1_5     R0        1
    x_1_5     R13       1
    x_1_5     R19       1
    x_1_6     R0        1
    x_1_6     R14       1
    x_1_6     R19       1
    x_1_7     R0        1
    x_1_7     R15       1
    x_1_7     R20       1
    x_1_8     R0        1
    x_1_8     R16       1
    x_1_8     R20       1
    x_1_8     R28       1
    x_1_9     R0        1
    x_1_9     R17       1
    x_1_9     R20       1
    x_2_1     R1        1
    x_2_1     R9        1
    x_2_1     R18       1
    x_2_2     R1        1
    x_2_2     R10       1
    x_2_2     R18       1
    x_2_3     R1        1
    x_2_3     R11       1
    x_2_3     R18       1
    x_2_4     R1        1
    x_2_4     R12       1
    x_2_4     R19       1
    x_2_5     R1        1
    x_2_5     R13       1
    x_2_5     R19       1
    x_2_6     R1        1
    x_2_6     R14       1
    x_2_6     R19       1
    x_2_7     R1        1
    x_2_7     R15       1
    x_2_7     R20       1
    x_2_7     R29       1
    x_2_8     R1        1
    x_2_8     R16       1
    x_2_8     R20       1
    x_2_9     R1        1
    x_2_9     R17       1
    x_2_9     R20       1
    x_2_9     R30       1
    x_3_1     R2        1
    x_3_1     R9        1
    x_3_1     R18       1
    x_3_1     R31       1
    x_3_2     R2        1
    x_3_2     R10       1
    x_3_2     R18       1
    x_3_2     R32       1
    x_3_3     R2        1
    x_3_3     R11       1
    x_3_3     R18       1
    x_3_3     R33       1
    x_3_4     R2        1
    x_3_4     R12       1
    x_3_4     R19       1
    x_3_5     R2        1
    x_3_5     R13       1
    x_3_5     R19       1
    x_3_6     R2        1
    x_3_6     R14       1
    x_3_6     R19       1
    x_3_7     R2        1
    x_3_7     R15       1
    x_3_7     R20       1
    x_3_8     R2        1
    x_3_8     R16       1
    x_3_8     R20       1
    x_3_8     R34       1
    x_3_9     R2        1
    x_3_9     R17       1
    x_3_9     R20       1
    x_4_1     R3        1
    x_4_1     R9        1
    x_4_1     R21       1
    x_4_2     R3        1
    x_4_2     R10       1
    x_4_2     R21       1
    x_4_3     R3        1
    x_4_3     R11       1
    x_4_3     R21       1
    x_4_3     R35       1
    x_4_4     R3        1
    x_4_4     R12       1
    x_4_4     R22       1
    x_4_5     R3        1
    x_4_5     R13       1
    x_4_5     R22       1
    x_4_6     R3        1
    x_4_6     R14       1
    x_4_6     R22       1
    x_4_7     R3        1
    x_4_7     R15       1
    x_4_7     R23       1
    x_4_8     R3        1
    x_4_8     R16       1
    x_4_8     R23       1
    x_4_9     R3        1
    x_4_9     R17       1
    x_4_9     R23       1
    x_5_1     R4        1
    x_5_1     R9        1
    x_5_1     R21       1
    x_5_1     R36       1
    x_5_2     R4        1
    x_5_2     R10       1
    x_5_2     R21       1
    x_5_3     R4        1
    x_5_3     R11       1
    x_5_3     R21       1
    x_5_4     R4        1
    x_5_4     R12       1
    x_5_4     R22       1
    x_5_5     R4        1
    x_5_5     R13       1
    x_5_5     R22       1
    x_5_6     R4        1
    x_5_6     R14       1
    x_5_6     R22       1
    x_5_6     R37       1
    x_5_7     R4        1
    x_5_7     R15       1
    x_5_7     R23       1
    x_5_8     R4        1
    x_5_8     R16       1
    x_5_8     R23       1
    x_5_8     R38       1
    x_5_9     R4        1
    x_5_9     R17       1
    x_5_9     R23       1
    x_6_1     R5        1
    x_6_1     R9        1
    x_6_1     R21       1
    x_6_1     R39       1
    x_6_2     R5        1
    x_6_2     R10       1
    x_6_2     R21       1
    x_6_3     R5        1
    x_6_3     R11       1
    x_6_3     R21       1
    x_6_4     R5        1
    x_6_4     R12       1
    x_6_4     R22       1
    x_6_5     R5        1
    x_6_5     R13       1
    x_6_5     R22       1
    x_6_6     R5        1
    x_6_6     R14       1
    x_6_6     R22       1
    x_6_7     R5        1
    x_6_7     R15       1
    x_6_7     R23       1
    x_6_8     R5        1
    x_6_8     R16       1
    x_6_8     R23       1
    x_6_9     R5        1
    x_6_9     R17       1
    x_6_9     R23       1
    x_6_9     R40       1
    x_7_1     R6        1
    x_7_1     R9        1
    x_7_1     R24       1
    x_7_1     R41       1
    x_7_2     R6        1
    x_7_2     R10       1
    x_7_2     R24       1
    x_7_2     R42       1
    x_7_3     R6        1
    x_7_3     R11       1
    x_7_3     R24       1
    x_7_4     R6        1
    x_7_4     R12       1
    x_7_4     R25       1
    x_7_4     R43       1
    x_7_5     R6        1
    x_7_5     R13       1
    x_7_5     R25       1
    x_7_6     R6        1
    x_7_6     R14       1
    x_7_6     R25       1
    x_7_7     R6        1
    x_7_7     R15       1
    x_7_7     R26       1
    x_7_8     R6        1
    x_7_8     R16       1
    x_7_8     R26       1
    x_7_9     R6        1
    x_7_9     R17       1
    x_7_9     R26       1
    x_8_1     R7        1
    x_8_1     R9        1
    x_8_1     R24       1
    x_8_2     R7        1
    x_8_2     R10       1
    x_8_2     R24       1
    x_8_2     R44       1
    x_8_3     R7        1
    x_8_3     R11       1
    x_8_3     R24       1
    x_8_3     R45       1
    x_8_4     R7        1
    x_8_4     R12       1
    x_8_4     R25       1
    x_8_4     R46       1
    x_8_5     R7        1
    x_8_5     R13       1
    x_8_5     R25       1
    x_8_5     R47       1
    x_8_6     R7        1
    x_8_6     R14       1
    x_8_6     R25       1
    x_8_7     R7        1
    x_8_7     R15       1
    x_8_7     R26       1
    x_8_8     R7        1
    x_8_8     R16       1
    x_8_8     R26       1
    x_8_9     R7        1
    x_8_9     R17       1
    x_8_9     R26       1
    x_9_1     R8        1
    x_9_1     R9        1
    x_9_1     R24       1
    x_9_2     R8        1
    x_9_2     R10       1
    x_9_2     R24       1
    x_9_2     R48       1
    x_9_3     R8        1
    x_9_3     R11       1
    x_9_3     R24       1
    x_9_3     R49       1
    x_9_4     R8        1
    x_9_4     R12       1
    x_9_4     R25       1
    x_9_5     R8        1
    x_9_5     R13       1
    x_9_5     R25       1
    x_9_5     R50       1
    x_9_6     R8        1
    x_9_6     R14       1
    x_9_6     R25       1
    x_9_6     R51       1
    x_9_7     R8        1
    x_9_7     R15       1
    x_9_7     R26       1
    x_9_7     R52       1
    x_9_8     R8        1
    x_9_8     R16       1
    x_9_8     R26       1
    x_9_9     R8        1
    x_9_9     R17       1
    x_9_9     R26       1
    MARKER    'MARKER'                 'INTEND'
RHS
    RHS1      R0        502
    RHS1      R1        502
    RHS1      R2        502
    RHS1      R3        502
    RHS1      R4        502
    RHS1      R5        502
    RHS1      R6        502
    RHS1      R7        502
    RHS1      R8        502
    RHS1      R9        502
    RHS1      R10       502
    RHS1      R11       502
    RHS1      R12       502
    RHS1      R13       502
    RHS1      R14       502
    RHS1      R15       502
    RHS1      R16       502
    RHS1      R17       502
    RHS1      R18       502
    RHS1      R19       502
    RHS1      R20       502
    RHS1      R21       502
    RHS1      R22       502
    RHS1      R23       502
    RHS1      R24       502
    RHS1      R25       502
    RHS1      R26       502
    RHS1      R27       127
    RHS1      R28       1
    RHS1      R29       255
    RHS1      R30       63
    RHS1      R31       3
    RHS1      R32       1
    RHS1      R34       15
    RHS1      R35       255
    RHS1      R36       15
    RHS1      R37       1
    RHS1      R38       63
    RHS1      R39       7
    RHS1      R40       3
    RHS1      R41       63
    RHS1      R42       255
    RHS1      R43       1
    RHS1      R44       7
    RHS1      R45       31
    RHS1      R47       3
    RHS1      R48       3
    RHS1      R49       15
    RHS1      R50       255
    RHS1      R51       127
    RHS1      R52       1
BOUNDS
 BV BND1      x_1_1   
 BV BND1      x_1_2   
 BV BND1      x_1_3   
 BV BND1      x_1_4   
 BV BND1      x_1_5   
 BV BND1      x_1_6   
 BV BND1      x_1_7   
 BV BND1      x_1_8   
 BV BND1      x_1_9   
 BV BND1      x_2_1   
 BV BND1      x_2_2   
 BV BND1      x_2_3   
 BV BND1      x_2_4   
 BV BND1      x_2_5   
 BV BND1      x_2_6   
 BV BND1      x_2_7   
 BV BND1      x_2_8   
 BV BND1      x_2_9   
 BV BND1      x_3_1   
 BV BND1      x_3_2   
 BV BND1      x_3_3   
 BV BND1      x_3_4   
 BV BND1      x_3_5   
 BV BND1      x_3_6   
 BV BND1      x_3_7   
 BV BND1      x_3_8   
 BV BND1      x_3_9   
 BV BND1      x_4_1   
 BV BND1      x_4_2   
 BV BND1      x_4_3   
 BV BND1      x_4_4   
 BV BND1      x_4_5   
 BV BND1      x_4_6   
 BV BND1      x_4_7   
 BV BND1      x_4_8   
 BV BND1      x_4_9   
 BV BND1      x_5_1   
 BV BND1      x_5_2   
 BV BND1      x_5_3   
 BV BND1      x_5_4   
 BV BND1      x_5_5   
 BV BND1      x_5_6   
 BV BND1      x_5_7   
 BV BND1      x_5_8   
 BV BND1      x_5_9   
 BV BND1      x_6_1   
 BV BND1      x_6_2   
 BV BND1      x_6_3   
 BV BND1      x_6_4   
 BV BND1      x_6_5   
 BV BND1      x_6_6   
 BV BND1      x_6_7   
 BV BND1      x_6_8   
 BV BND1      x_6_9   
 BV BND1      x_7_1   
 BV BND1      x_7_2   
 BV BND1      x_7_3   
 BV BND1      x_7_4   
 BV BND1      x_7_5   
 BV BND1      x_7_6   
 BV BND1      x_7_7   
 BV BND1      x_7_8   
 BV BND1      x_7_9   
 BV BND1      x_8_1   
 BV BND1      x_8_2   
 BV BND1      x_8_3   
 BV BND1      x_8_4   
 BV BND1      x_8_5   
 BV BND1      x_8_6   
 BV BND1      x_8_7   
 BV BND1      x_8_8   
 BV BND1      x_8_9   
 BV BND1      x_9_1   
 BV BND1      x_9_2   
 BV BND1      x_9_3   
 BV BND1      x_9_4   
 BV BND1      x_9_5   
 BV BND1      x_9_6   
 BV BND1      x_9_7   
 BV BND1      x_9_8   
 BV BND1      x_9_9   
ENDATA
